Route #1: 86 85 81 78 77
Route #2: 76 71 70 73 79 80 96
Route #3: 5 2 75 93
Route #4: 74 72 61 64 66 69 0 1 99 100 97 92 94 0 59 56 58 60 44 0 9 13 15 17
Route #5: 68 65 55 54 53 49 0 18 19 16 14 12 0 52 50 51 45 42 41 43 47 48
Route #6: 31 35 37 38 39 0 7 98 95 3 4 89 0 91 88 84 82 83 90 0 21 25 11 10 8
Route #7: 67 62 63 0 29 33 32 6
Route #8: 20 22 0 24 27 30 34 36 28 26 23 0 46 40 57 87
Cost: 14712
Optimal: True
